certificates/rado_a7_c290_N41.cnf
c Rad2 upper bound instance: x1 + 7*x2 - x3 = 290, interval [1,41]
p cnf 41 246
1 4 41 0
-1 -4 -41 0
2 5 41 0
-2 -5 -41 0
3 6 41 0
-3 -6 -41 0
4 7 41 0
-4 -7 -41 0
5 8 41 0
-5 -8 -41 0
6 9 41 0
-6 -9 -41 0
7 10 41 0
-7 -10 -41 0
1 11 40 0
-1 -11 -40 0
8 11 41 0
-8 -11 -41 0
2 12 40 0
-2 -12 -40 0
9 12 41 0
-9 -12 -41 0
3 13 40 0
-3 -13 -40 0
10 13 41 0
-10 -13 -41 0
4 14 40 0
-4 -14 -40 0
11 14 41 0
-11 -14 -41 0
5 15 40 0
-5 -15 -40 0
12 15 41 0
-12 -15 -41 0
6 16 40 0
-6 -16 -40 0
13 16 41 0
-13 -16 -41 0
7 17 40 0
-7 -17 -40 0
14 17 41 0
-14 -17 -41 0
1 18 39 0
-1 -18 -39 0
8 18 40 0
-8 -18 -40 0
15 18 41 0
-15 -18 -41 0
2 19 39 0
-2 -19 -39 0
9 19 40 0
-9 -19 -40 0
16 19 41 0
-16 -19 -41 0
3 20 39 0
-3 -20 -39 0
10 20 40 0
-10 -20 -40 0
17 20 41 0
-17 -20 -41 0
4 21 39 0
-4 -21 -39 0
11 21 40 0
-11 -21 -40 0
18 21 41 0
-18 -21 -41 0
5 22 39 0
-5 -22 -39 0
12 22 40 0
-12 -22 -40 0
19 22 41 0
-19 -22 -41 0
6 23 39 0
-6 -23 -39 0
13 23 40 0
-13 -23 -40 0
20 23 41 0
-20 -23 -41 0
7 24 39 0
-7 -24 -39 0
14 24 40 0
-14 -24 -40 0
21 24 41 0
-21 -24 -41 0
1 25 38 0
-1 -25 -38 0
8 25 39 0
-8 -25 -39 0
15 25 40 0
-15 -25 -40 0
22 25 41 0
-22 -25 -41 0
2 26 38 0
-2 -26 -38 0
9 26 39 0
-9 -26 -39 0
16 26 40 0
-16 -26 -40 0
23 26 41 0
-23 -26 -41 0
3 27 38 0
-3 -27 -38 0
10 27 39 0
-10 -27 -39 0
17 27 40 0
-17 -27 -40 0
24 27 41 0
-24 -27 -41 0
4 28 38 0
-4 -28 -38 0
11 28 39 0
-11 -28 -39 0
18 28 40 0
-18 -28 -40 0
25 28 41 0
-25 -28 -41 0
5 29 38 0
-5 -29 -38 0
12 29 39 0
-12 -29 -39 0
19 29 40 0
-19 -29 -40 0
26 29 41 0
-26 -29 -41 0
6 30 38 0
-6 -30 -38 0
13 30 39 0
-13 -30 -39 0
20 30 40 0
-20 -30 -40 0
27 30 41 0
-27 -30 -41 0
7 31 38 0
-7 -31 -38 0
14 31 39 0
-14 -31 -39 0
21 31 40 0
-21 -31 -40 0
28 31 41 0
-28 -31 -41 0
1 32 37 0
-1 -32 -37 0
8 32 38 0
-8 -32 -38 0
15 32 39 0
-15 -32 -39 0
22 32 40 0
-22 -32 -40 0
29 32 41 0
-29 -32 -41 0
2 33 37 0
-2 -33 -37 0
9 33 38 0
-9 -33 -38 0
16 33 39 0
-16 -33 -39 0
23 33 40 0
-23 -33 -40 0
30 33 41 0
-30 -33 -41 0
3 34 37 0
-3 -34 -37 0
10 34 38 0
-10 -34 -38 0
17 34 39 0
-17 -34 -39 0
24 34 40 0
-24 -34 -40 0
31 34 41 0
-31 -34 -41 0
4 35 37 0
-4 -35 -37 0
11 35 38 0
-11 -35 -38 0
18 35 39 0
-18 -35 -39 0
25 35 40 0
-25 -35 -40 0
32 35 41 0
-32 -35 -41 0
5 36 37 0
-5 -36 -37 0
12 36 38 0
-12 -36 -38 0
19 36 39 0
-19 -36 -39 0
26 36 40 0
-26 -36 -40 0
33 36 41 0
-33 -36 -41 0
6 37 0
-6 -37 0
13 37 38 0
-13 -37 -38 0
20 37 39 0
-20 -37 -39 0
27 37 40 0
-27 -37 -40 0
34 37 41 0
-34 -37 -41 0
7 37 38 0
-7 -37 -38 0
14 38 0
-14 -38 0
21 38 39 0
-21 -38 -39 0
28 38 40 0
-28 -38 -40 0
35 38 41 0
-35 -38 -41 0
1 36 39 0
-1 -36 -39 0
8 37 39 0
-8 -37 -39 0
15 38 39 0
-15 -38 -39 0
22 39 0
-22 -39 0
29 39 40 0
-29 -39 -40 0
36 39 41 0
-36 -39 -41 0
2 36 40 0
-2 -36 -40 0
9 37 40 0
-9 -37 -40 0
16 38 40 0
-16 -38 -40 0
23 39 40 0
-23 -39 -40 0
30 40 0
-30 -40 0
37 40 41 0
-37 -40 -41 0
3 36 41 0
-3 -36 -41 0
10 37 41 0
-10 -37 -41 0
17 38 41 0
-17 -38 -41 0
24 39 41 0
-24 -39 -41 0
31 40 41 0
-31 -40 -41 0
38 41 0
-38 -41 0
