certificates/rado_a7_c290_N41.drat
-40 -41 0
-14 -41 0
d -14 -17 -41 0
-41 0
38 0
-14 0
11 0
17 0
-35 0
32 0
-8 0
5 0
-29 0
26 0
-2 0
40 0
-30 0
-1 0
-28 0
-16 0
-21 0
-7 0
-27 0
-22 0
-15 0
-36 0
0
